numOfMachines = 4;
numOfRobots = 2;
numOfJobs = 5;
maxOperations = 3;
operationsCount = [3,3,3,2,2];

operation = [
[<0,0,0>,<1,6,0>,<2,12,0>,<4,9,1>],
[<0,0,0>,<1,18,0>,<3,6,0>,<2,15,1>],
[<0,0,0>,<3,9,0>,<4,3,0>,<1,12,0>],
[<0,0,0>,<4,6,0>,<2,15,0>],
[<0,0,0>,<3,3,0>,<1,9,1>]
];